nNurses = 198;
nHours = 26;
minHours = 5;
maxHours = 8;
maxConsec = 6;
maxPresence = 25;
demand = [29, 27, 26, 28, 26, 22, 25, 27, 26, 26, 27, 27, 29, 26, 31, 36, 39, 39, 36, 33, 33, 35, 38, 39, 37, 36];
